NAME : XML100_3342_23
DIMENSION : 101
NB_CLUSTERS : 9
CLUSTERING_ALG : DBSCAN
CLUSTERING_PARAMS : eps(107), minSamples(3)
CLUSTERS
1 0
2 1 3 13 20 27 31 32 33 34 43 45 58 61 62 67 71 72 75 77 78 93 96 100
3 4 12 18 19 21 22 25 35 39 41 51 73 81
4 2 5 6 7 10 11 17 24 28 46 50 57 59 60 63 64 68 69 85 86 87 94 95 97
5 8 15 23 36 37 40 42 44 48 49 54 55 76 82 84 90 91 98
6 9 38 52 65 70 74 83 89 92
7 29 56 80 88 99
8 14 26 30 53 79
9 16 47 66
EOF